NAME: map2_72
TYPE: TSP
COMMENT: autogenerated using a wonderful map creator
DIMENSION: 96
EDGE_WEIGHT_TYPE: EUC_2D
NODE_COORD_SECTION
1 4.0 2.0
2 3.0 2.0
3 4.0 5.0
4 3.0 5.0
5 4.0 8.0
6 3.0 8.0
7 79.0 2.0
8 80.0 2.0
9 79.0 5.0
10 80.0 5.0
11 79.0 8.0
12 80.0 8.0
13 2.0 2.0
14 1.0 2.0
15 81.0 5.0
16 82.0 5.0
17 2.0 8.0
18 1.0 8.0
19 81.0 2.0
20 82.0 2.0
21 2.0 5.0
22 1.0 5.0
23 81.0 8.0
24 82.0 8.0
25 79.0 3.0
26 80.0 3.0
27 79.0 6.0
28 80.0 6.0
29 79.0 9.0
30 80.0 9.0
31 4.0 3.0
32 3.0 3.0
33 4.0 6.0
34 3.0 6.0
35 4.0 9.0
36 3.0 9.0
37 81.0 3.0
38 82.0 3.0
39 2.0 6.0
40 1.0 6.0
41 81.0 9.0
42 82.0 9.0
43 2.0 3.0
44 1.0 3.0
45 81.0 6.0
46 82.0 6.0
47 2.0 9.0
48 1.0 9.0
49 20.0 5.0
50 20.0 8.0
51 22.0 5.0
52 58.0 4.0
53 69.0 4.0
54 36.0 7.0
55 58.0 7.0
56 75.0 2.0
57 11.0 2.0
58 75.0 5.0
59 33.0 2.0
60 11.0 5.0
61 73.0 8.0
62 68.0 8.0
63 46.0 2.0
64 44.0 8.0
65 25.0 7.0
66 46.0 5.0
67 73.0 5.0
68 57.0 8.0
69 48.0 5.0
70 26.0 5.0
71 40.0 2.0
72 72.0 8.0
73 26.0 8.0
74 37.0 2.0
75 59.0 2.0
76 47.0 6.0
77 36.0 6.0
78 14.0 3.0
79 70.0 5.0
80 69.0 3.0
81 58.0 3.0
82 70.0 8.0
83 74.0 2.0
84 74.0 8.0
85 8.0 5.0
86 41.0 5.0
87 17.0 8.0
88 65.0 2.0
89 76.0 8.0
90 8.0 8.0
91 28.0 8.0
92 56.0 2.0
93 67.0 2.0
94 34.0 2.0
95 21.0 8.0
96 14.0 2.0
97 12.0 5.0
98 45.0 2.0
99 58.0 8.0
100 14.0 5.0
101 47.0 5.0
102 36.0 5.0
103 62.0 5.0
104 60.0 8.0
105 34.0 8.0
106 27.0 5.0
107 58.0 5.0
108 51.0 8.0
109 16.0 2.0
110 49.0 2.0
111 38.0 2.0
112 18.0 2.0
113 38.0 5.0
114 16.0 8.0
115 7.0 5.0
116 40.0 5.0
117 31.0 2.0
118 64.0 2.0
119 18.0 8.0
120 29.0 8.0
START_DEPOT_SECTION
1
2
3
4
5
6
7
8
9
10
11
12
13
14
15
16
17
18
19
20
21
22
23
24
-1
END_DEPOT_SECTION
25
26
27
28
29
30
31
32
33
34
35
36
37
38
39
40
41
42
43
44
45
46
47
48
-1
EOF
